param K := 10;
param eps := 0.05;

set Ct:= SC1 SC2 SC3 SC4 SC5;
set M := MS1_1 MS1_2 MS1_3 MS1_4 MS1_5 MS2_1 MS2_2 MS2_3 MS2_4 MS2_5 MS3_1 MS3_2 MS3_3 MS3_4 MS3_5 MS4_1 MS4_2 MS4_3 MS4_4 MS4_5 MS5_1 MS5_2 MS5_3 MS5_4 MS5_5;
set F := F1 F2 F3 F4 F5;
set C["SC1"] := MS1_1 MS1_2 MS1_3 MS1_4 MS1_5;
set C["SC2"] := MS2_1 MS2_2 MS2_3 MS2_4 MS2_5;
set C["SC3"] := MS3_1 MS3_2 MS3_3 MS3_4 MS3_5;
set C["SC4"] := MS4_1 MS4_2 MS4_3 MS4_4 MS4_5;
set C["SC5"] := MS5_1 MS5_2 MS5_3 MS5_4 MS5_5;

param:      lm      Sm      Om      :=
MS1_1       0.07       5.425721719254314      5.425721719254314
MS1_2       0.07       0.3325492523841165      0.3325492523841165
MS1_3       0.07       2.175676652024632      2.175676652024632
MS1_4       0.07       0.7175987537542667      0.7175987537542667
MS1_5       0.07       1.3484536225826709      1.3484536225826709
MS2_1       0.07       0.19134258325527398      0.19134258325527398
MS2_2       0.07       1.585418103115308      1.585418103115308
MS2_3       0.07       1.9078034746913506      1.9078034746913506
MS2_4       0.07       3.7163563036769      3.7163563036769
MS2_5       0.07       2.5990795352611675      2.5990795352611675
MS3_1       0.07       1.0362668013593157      1.0362668013593157
MS3_2       0.07       4.663382916276586      4.663382916276586
MS3_3       0.07       3.420603551235046      3.420603551235046
MS3_4       0.07       0.32523359989768785      0.32523359989768785
MS3_5       0.07       0.5545131312313654      0.5545131312313654
MS4_1       0.07       1.1550429470459178      1.1550429470459178
MS4_2       0.07       0.18261648829321908      0.18261648829321908
MS4_3       0.07       4.998900921737481      4.998900921737481
MS4_4       0.07       0.14794072447843742      0.14794072447843742
MS4_5       0.07       3.515498918444945      3.515498918444945
MS5_1       0.07       1.649427159120811      1.649427159120811
MS5_2       0.07       0.5398519837205553      0.5398519837205553
MS5_3       0.07       6.054017073561907      6.054017073561907
MS5_4       0.07       0.344485714642218      0.344485714642218
MS5_5       0.07       1.412218068954509      1.412218068954509
;

param:  lc  :=
SC1   0.07
SC2   0.07
SC3   0.07
SC4   0.07
SC5   0.07
;

param   P   :=
 F1  1.0
 F2  1.0
 F3  1.0
 F4  1.0
 F5  1.0
;

param   o:    MS1_1    MS1_2    MS1_3    MS1_4    MS1_5    MS2_1    MS2_2    MS2_3    MS2_4    MS2_5    MS3_1    MS3_2    MS3_3    MS3_4    MS3_5    MS4_1    MS4_2    MS4_3    MS4_4    MS4_5    MS5_1    MS5_2    MS5_3    MS5_4    MS5_5    :=
    MS1_1    0    0    0    0    0    0    0    0    0    0    0    0    0    0    0    0    0    0    0    0    0    0    0    0    0
    MS1_2    1    0    0    0    0    0    0    0    0    0    0    0    0    0    0    0    0    0    0    0    0    0    0    0    0
    MS1_3    0    1    0    0    0    0    0    0    0    0    0    0    0    0    0    0    0    0    0    0    0    0    0    0    0
    MS1_4    0    0    1    0    0    0    0    0    0    0    0    0    0    0    0    0    0    0    0    0    0    0    0    0    0
    MS1_5    0    0    0    1    0    0    0    0    0    0    0    0    0    0    0    0    0    0    0    0    0    0    0    0    0
    MS2_1    0    0    0    0    0    0    0    0    0    0    0    0    0    0    0    0    0    0    0    0    0    0    0    0    0
    MS2_2    0    0    0    0    0    1    0    0    0    0    0    0    0    0    0    0    0    0    0    0    0    0    0    0    0
    MS2_3    0    0    0    0    0    0    1    0    0    0    0    0    0    0    0    0    0    0    0    0    0    0    0    0    0
    MS2_4    0    0    0    0    0    0    0    1    0    0    0    0    0    0    0    0    0    0    0    0    0    0    0    0    0
    MS2_5    0    0    0    0    0    0    0    0    1    0    0    0    0    0    0    0    0    0    0    0    0    0    0    0    0
    MS3_1    0    0    0    0    0    0    0    0    0    0    0    0    0    0    0    0    0    0    0    0    0    0    0    0    0
    MS3_2    0    0    0    0    0    0    0    0    0    0    1    0    0    0    0    0    0    0    0    0    0    0    0    0    0
    MS3_3    0    0    0    0    0    0    0    0    0    0    0    1    0    0    0    0    0    0    0    0    0    0    0    0    0
    MS3_4    0    0    0    0    0    0    0    0    0    0    0    0    1    0    0    0    0    0    0    0    0    0    0    0    0
    MS3_5    0    0    0    0    0    0    0    0    0    0    0    0    0    1    0    0    0    0    0    0    0    0    0    0    0
    MS4_1    0    0    0    0    0    0    0    0    0    0    0    0    0    0    0    0    0    0    0    0    0    0    0    0    0
    MS4_2    0    0    0    0    0    0    0    0    0    0    0    0    0    0    0    1    0    0    0    0    0    0    0    0    0
    MS4_3    0    0    0    0    0    0    0    0    0    0    0    0    0    0    0    0    1    0    0    0    0    0    0    0    0
    MS4_4    0    0    0    0    0    0    0    0    0    0    0    0    0    0    0    0    0    1    0    0    0    0    0    0    0
    MS4_5    0    0    0    0    0    0    0    0    0    0    0    0    0    0    0    0    0    0    1    0    0    0    0    0    0
    MS5_1    0    0    0    0    0    0    0    0    0    0    0    0    0    0    0    0    0    0    0    0    0    0    0    0    0
    MS5_2    0    0    0    0    0    0    0    0    0    0    0    0    0    0    0    0    0    0    0    0    1    0    0    0    0
    MS5_3    0    0    0    0    0    0    0    0    0    0    0    0    0    0    0    0    0    0    0    0    0    1    0    0    0
    MS5_4    0    0    0    0    0    0    0    0    0    0    0    0    0    0    0    0    0    0    0    0    0    0    1    0    0
    MS5_5    0    0    0    0    0    0    0    0    0    0    0    0    0    0    0    0    0    0    0    0    0    0    0    1    0
;

param   d:    F1    F2    F3    F4    F5    :=
    F1    0.0    2.273814618890803    1.9450359740100513    1.9427325737605488    1.9427325737605488
    F2    2.273814618890803    0.0    1.9427325737605488    2.085290996370217    2.085290996370217
    F3    1.9450359740100513    1.9427325737605488    0.0    1.4511144999088263    1.4511144999088263
    F4    1.9427325737605488    2.085290996370217    1.4511144999088263    0.0    2.3525420777356967
    F5    1.9427325737605488    2.085290996370217    1.4511144999088263    2.3525420777356967    0.0
;